306 5
10 10 10 10 10 

0 0 0 0 0 0 5 2 14 26 38 50 
0 0 0 0 0 0 4 3 5 9 164 
1 0 0 0 1 0 2 7 4 
5 0 0 0 7 0 2 11 6 
3 0 0 0 5 0 3 12 11 8 
10 0 0 0 3 0 2 12 8 
8 0 0 0 5 0 2 11 8 
5 0 0 0 6 0 1 10 
10 0 0 0 5 0 1 10 
10 0 0 0 5 0 1 13 
9 0 0 0 6 0 1 13 
3 0 0 0 7 0 1 13 
0 0 0 0 0 0 1 62 
0 0 0 0 0 0 2 15 17 
10 1 0 0 0 0 2 18 16 
8 4 0 0 0 0 2 20 19 
7 3 0 0 0 0 2 21 19 
10 6 0 0 0 0 2 24 20 
2 7 0 0 0 0 2 23 22 
5 5 0 0 0 0 1 21 
9 2 0 0 0 0 1 23 
4 6 0 0 0 0 2 24 89 
10 8 0 0 0 0 1 25 
3 8 0 0 0 0 1 25 
0 0 0 0 0 0 1 62 
0 0 0 0 0 0 2 27 28 
6 0 0 1 0 0 2 31 29 
10 0 0 6 0 0 3 31 30 249 
10 0 0 6 0 0 2 32 30 
8 0 0 2 0 0 2 36 33 
7 0 0 6 0 0 2 36 32 
3 0 0 4 0 0 2 35 34 
2 0 0 7 0 0 2 35 34 
1 0 0 4 0 0 1 37 
8 0 0 9 0 0 1 37 
4 0 0 5 0 0 1 37 
0 0 0 0 0 0 1 62 
0 0 0 0 0 0 3 39 40 41 
2 0 1 0 0 0 1 42 
6 0 4 0 0 0 1 42 
9 0 4 0 0 0 1 42 
9 0 7 0 0 0 3 45 44 43 
1 0 6 0 0 0 2 48 46 
1 0 6 0 0 0 2 48 46 
5 0 8 0 0 0 2 48 47 
5 0 6 0 0 0 2 47 235 
7 0 4 0 0 0 1 49 
4 0 4 0 0 0 1 49 
0 0 0 0 0 0 1 62 
0 0 0 0 0 0 2 51 53 
6 0 1 0 0 0 2 55 52 
1 0 6 0 0 0 3 56 54 85 
4 0 3 0 0 0 2 56 54 
9 0 7 0 0 0 2 58 57 
5 0 3 0 0 0 2 60 56 
9 0 10 0 0 0 1 57 
6 0 8 0 0 0 1 59 
6 0 4 0 0 0 1 60 
7 0 2 0 0 0 1 61 
8 0 6 0 0 0 1 61 
0 0 0 0 0 0 1 62 
0 0 0 0 0 0 5 63 75 87 99 111 
0 0 0 0 0 0 3 64 66 67 
6 0 1 0 0 0 2 71 65 
8 0 3 0 0 0 2 69 68 
4 0 3 0 0 0 2 71 68 
2 0 7 0 0 0 1 68 
10 0 8 0 0 0 2 72 70 
8 0 4 0 0 0 2 72 70 
5 0 7 0 0 0 1 73 
10 0 5 0 0 0 1 72 
1 0 7 0 0 0 2 74 134 
1 0 5 0 0 0 1 74 
0 0 0 0 0 0 1 123 
0 0 0 0 0 0 3 76 78 79 
4 0 1 0 0 0 1 77 
5 0 5 0 0 0 2 83 80 
1 0 5 0 0 0 3 85 83 82 
8 0 7 0 0 0 2 84 81 
3 0 7 0 0 0 1 81 
10 0 7 0 0 0 1 82 
5 0 4 0 0 0 1 86 
7 0 4 0 0 0 2 86 194 
3 0 6 0 0 0 1 86 
10 0 4 0 0 0 1 86 
0 0 0 0 0 0 1 123 
0 0 0 0 0 0 3 88 96 97 
8 0 1 0 0 0 4 95 94 91 89 
6 0 7 0 0 0 1 90 
2 0 9 0 0 0 1 92 
10 0 6 0 0 0 2 92 102 
1 0 3 0 0 0 1 93 
10 0 2 0 0 0 1 98 
8 0 4 0 0 0 1 98 
9 0 8 0 0 0 1 98 
9 0 7 0 0 0 1 98 
4 0 3 0 0 0 1 98 
0 0 0 0 0 0 1 123 
0 0 0 0 0 0 3 100 103 105 
2 0 0 0 0 1 2 102 101 
3 0 0 0 0 5 2 107 104 
2 0 0 0 0 2 2 107 104 
1 0 0 0 0 8 3 109 107 106 
9 0 0 0 0 4 2 109 106 
5 0 0 0 0 7 2 107 106 
6 0 0 0 0 5 1 108 
2 0 0 0 0 7 1 108 
7 0 0 0 0 8 2 110 226 
8 0 0 0 0 3 1 110 
0 0 0 0 0 0 1 123 
0 0 0 0 0 0 5 112 113 114 116 121 
8 0 1 0 0 0 3 120 115 261 
4 0 3 0 0 0 2 120 117 
7 0 6 0 0 0 2 120 118 
4 0 6 0 0 0 1 117 
2 0 5 0 0 0 1 117 
2 0 7 0 0 0 1 118 
2 0 6 0 0 0 1 119 
1 0 10 0 0 0 1 122 
7 0 2 0 0 0 1 122 
4 0 4 0 0 0 1 122 
0 0 0 0 0 0 1 123 
0 0 0 0 0 0 5 124 136 148 160 172 
0 0 0 0 0 0 4 125 128 133 134 
7 0 0 0 0 1 2 126 194 
8 0 0 0 0 2 2 132 127 
3 0 0 0 0 6 2 130 129 
1 0 0 0 0 4 2 132 130 
5 0 0 0 0 7 1 131 
4 0 0 0 0 4 1 135 
9 0 0 0 0 6 1 135 
5 0 0 0 0 4 1 135 
9 0 0 0 0 6 1 135 
7 0 0 0 0 10 1 135 
0 0 0 0 0 0 1 184 
0 0 0 0 0 0 3 137 145 146 
6 1 0 0 0 0 3 144 143 138 
9 5 0 0 0 0 2 142 139 
4 5 0 0 0 0 1 140 
8 6 0 0 0 0 1 141 
8 10 0 0 0 0 1 147 
5 6 0 0 0 0 1 147 
4 6 0 0 0 0 2 147 228 
7 4 0 0 0 0 1 147 
7 3 0 0 0 0 1 147 
2 4 0 0 0 0 1 147 
0 0 0 0 0 0 1 184 
0 0 0 0 0 0 2 149 151 
5 0 0 0 1 0 2 152 150 
7 0 0 0 9 0 3 156 154 153 
6 0 0 0 9 0 2 156 152 
9 0 0 0 3 0 2 158 154 
8 0 0 0 4 0 2 158 155 
5 0 0 0 5 0 1 155 
10 0 0 0 5 0 1 157 
4 0 0 0 4 0 1 157 
4 0 0 0 3 0 1 159 
6 0 0 0 7 0 1 159 
0 0 0 0 0 0 1 184 
0 0 0 0 0 0 2 161 162 
5 0 0 0 0 1 3 166 164 163 
1 0 0 0 0 8 3 170 166 165 
7 0 0 0 0 4 2 168 165 
6 0 0 0 0 6 2 170 167 
7 0 0 0 0 4 1 167 
10 0 0 0 0 4 1 167 
1 0 0 0 0 6 1 169 
4 0 0 0 0 6 1 170 
4 0 0 0 0 5 1 171 
3 0 0 0 0 6 1 171 
0 0 0 0 0 0 1 184 
0 0 0 0 0 0 5 173 175 178 181 182 
2 0 0 2 0 0 1 174 
9 0 0 5 0 0 1 176 
4 0 0 3 0 0 2 180 179 
7 0 0 6 0 0 1 177 
6 0 0 4 0 0 1 179 
1 0 0 5 0 0 1 180 
2 0 0 10 0 0 1 183 
8 0 0 6 0 0 1 183 
10 0 0 6 0 0 1 183 
2 0 0 3 0 0 1 183 
0 0 0 0 0 0 1 184 
0 0 0 0 0 0 5 185 197 209 221 233 
0 0 0 0 0 0 3 186 187 188 
6 0 0 0 1 0 3 195 191 190 
4 0 0 0 5 0 2 190 189 
1 0 0 0 9 0 3 195 194 193 
6 0 0 0 4 0 1 191 
5 0 0 0 5 0 2 194 193 
4 0 0 0 3 0 1 192 
4 0 0 0 7 0 1 193 
4 0 0 0 5 0 1 196 
8 0 0 0 6 0 1 196 
6 0 0 0 5 0 1 196 
0 0 0 0 0 0 1 245 
0 0 0 0 0 0 5 198 202 205 206 207 
2 0 0 1 0 0 1 199 
1 0 0 7 0 0 2 204 200 
7 0 0 6 0 0 1 201 
6 0 0 6 0 0 1 203 
2 0 0 5 0 0 1 203 
9 0 0 1 0 0 1 208 
4 0 0 8 0 0 1 208 
10 0 0 3 0 0 1 208 
10 0 0 6 0 0 1 208 
4 0 0 7 0 0 1 208 
0 0 0 0 0 0 1 245 
0 0 0 0 0 0 4 210 212 215 219 
9 0 0 0 0 1 3 218 217 211 
1 0 0 0 0 5 1 213 
7 0 0 0 0 5 1 213 
1 0 0 0 0 4 1 214 
8 0 0 0 0 8 1 216 
5 0 0 0 0 8 1 217 
7 0 0 0 0 4 1 220 
8 0 0 0 0 3 1 220 
4 0 0 0 0 6 1 220 
9 0 0 0 0 6 1 220 
0 0 0 0 0 0 1 245 
0 0 0 0 0 0 2 222 224 
8 1 0 0 0 0 2 225 223 
6 1 0 0 0 0 3 229 227 226 
3 7 0 0 0 0 3 229 228 227 
9 5 0 0 0 0 2 228 227 
6 3 0 0 0 0 2 231 228 
8 8 0 0 0 0 2 231 230 
10 7 0 0 0 0 1 230 
4 8 0 0 0 0 1 230 
4 3 0 0 0 0 1 232 
6 7 0 0 0 0 1 232 
0 0 0 0 0 0 1 245 
0 0 0 0 0 0 3 234 238 239 
9 0 0 1 0 0 2 243 235 
10 0 0 4 0 0 2 240 236 
8 0 0 7 0 0 2 242 237 
4 0 0 4 0 0 1 241 
3 0 0 10 0 0 1 240 
4 0 0 9 0 0 1 240 
5 0 0 4 0 0 1 244 
7 0 0 3 0 0 1 244 
7 0 0 5 0 0 1 244 
5 0 0 3 0 0 1 244 
0 0 0 0 0 0 1 245 
0 0 0 0 0 0 5 246 258 270 282 294 
0 0 0 0 0 0 1 247 
4 0 0 0 1 0 3 252 249 248 
8 0 0 0 5 0 2 251 250 
3 0 0 0 5 0 2 251 250 
9 0 0 0 7 0 3 256 255 254 
4 0 0 0 5 0 2 256 253 
3 0 0 0 2 0 2 255 254 
8 0 0 0 9 0 1 254 
8 0 0 0 5 0 1 257 
1 0 0 0 9 0 1 257 
1 0 0 0 2 0 1 257 
0 0 0 0 0 0 1 306 
0 0 0 0 0 0 3 259 262 263 
5 0 0 0 1 0 2 261 260 
7 0 0 0 6 0 2 268 264 
7 0 0 0 4 0 2 268 264 
6 0 0 0 7 0 2 266 265 
9 0 0 0 3 0 1 264 
1 0 0 0 9 0 1 265 
3 0 0 0 6 0 1 267 
5 0 0 0 4 0 1 267 
4 0 0 0 6 0 1 269 
1 0 0 0 4 0 1 269 
0 0 0 0 0 0 1 306 
0 0 0 0 0 0 2 271 272 
1 0 0 0 1 0 3 276 274 273 
3 0 0 0 5 0 3 280 277 276 
7 0 0 0 5 0 2 280 275 
6 0 0 0 8 0 3 280 279 277 
8 0 0 0 5 0 2 279 277 
6 0 0 0 8 0 2 279 278 
7 0 0 0 4 0 1 278 
9 0 0 0 4 0 1 281 
3 0 0 0 6 0 1 281 
8 0 0 0 4 0 1 281 
0 0 0 0 0 0 1 306 
0 0 0 0 0 0 4 283 284 285 286 
2 0 0 0 0 1 2 289 287 
9 0 0 0 0 6 2 291 287 
2 0 0 0 0 6 2 291 288 
6 0 0 0 0 9 2 291 290 
7 0 0 0 0 5 1 288 
3 0 0 0 0 4 1 290 
4 0 0 0 0 5 1 291 
5 0 0 0 0 6 1 292 
10 0 0 0 0 5 1 292 
6 0 0 0 0 3 1 293 
0 0 0 0 0 0 1 306 
0 0 0 0 0 0 3 295 299 304 
7 0 0 0 0 1 2 303 296 
4 0 0 0 0 5 1 297 
8 0 0 0 0 5 3 302 300 298 
9 0 0 0 0 5 1 301 
4 0 0 0 0 5 1 300 
5 0 0 0 0 3 1 305 
2 0 0 0 0 6 1 305 
10 0 0 0 0 8 1 305 
4 0 0 0 0 7 1 305 
1 0 0 0 0 5 1 305 
0 0 0 0 0 0 1 306 
0 0 0 0 0 0 0 
